100
32
2
8
10
17
6
19
32
27
3
11
2
9
32
12
11
11
7
13
10
14
9
28
19
2
25
12
10
2
14
15
10
16
15
9
4
26
1
3
13
18
2
1
3
4
3
2
5
21
21
4
1
6
2
10
17
4
3
16
17
1
20
4
8
8
5
1
17
3
1
5
3
6
9
17
17
2
1
1
26
17
4
4
11
4
17
7
21
5
8
5
4
1
1
4
1
3
2
4
1
2